18 18

2 15 18 9 7 5 17 8
14 4 1 11 3 11 12 5
4 12 5 8 11 13 9 4 10 14
18 7 3 10 15 14 7 12
13 11 2 5 4 3 10 7 1 10 3 7
16 15 11 13 14 5 2 10 1 8 12 14
4 3 13 6 12 11 16 7
3 5 5 15 9 9 8 8 6 11 10 14
12 14 8 8 14 9 7 13 4 11
1 5 5 10 18 12 15 5
3 6 4 8 17 12 5 7
10 3 9 14 15 13 11 11 18 10
18 13 5 13 3 15 13 12
6 11 16 6 10 6 5 10 13 6
13 13 6 15 14 13 10 6 17 5
5 4 6 15 3 8 18 10
9 11 4 14 16 2 6 6 18 14 15 3
11 14 14 13 12 5 8 2 7 15 1 8
